NAME : RC208.7761.tour
COMMENT : Cost = 0_7761
COMMENT : Found by LKH [Keld Helsgaun] Wed Sep 13 20:28:57 2017
TYPE : TOUR
DIMENSION : 104
TOUR_SECTION
1
95
93
96
68
63
51
35
32
30
28
27
29
31
33
34
77
90
64
86
52
85
57
92
81
102
62
43
45
40
39
37
36
38
41
44
42
73
72
94
97
55
82
103
70
99
89
3
7
8
80
74
79
13
15
48
18
17
16
14
10
12
11
54
61
9
47
5
46
6
4
2
71
101
56
69
104
91
66
83
100
53
84
65
50
20
19
49
22
24
26
78
59
76
98
60
88
75
87
58
25
23
21
67
-1
EOF
